p cnf 36 200
 1 2 3 0
 4 0
 7 10 11 0
 12 0
 13 14 15 0
 16 17 0
 20 22 23 0
 24 0
 25 26 27 0
 29 30 0
 -1 -2 -3 0
 -2 -3 -4 0
 -3 -4 -5 0
 -4 -5 -6 0
 -7 -8 -9 0
 -8 -9 -10 0
 -9 -10 -11 0
 -10 -11 -12 0
 -13 -14 -15 0
 -14 -15 -16 0
 -15 -16 -17 0
 -16 -17 -18 0
 -19 -20 -21 0
 -20 -21 -22 0
 -21 -22 -23 0
 -22 -23 -24 0
 -25 -26 -27 0
 -26 -27 -28 0
 -27 -28 -29 0
 -28 -29 -30 0
 -31 -32 -33 0
 -32 -33 -34 0
 -33 -34 -35 0
 -34 -35 -36 0
 1 2 3 0
 4 0
 7 10 11 0
 12 0
 13 14 15 0
 16 17 0
 20 22 23 0
 24 0
 25 26 27 0
 29 30 0
 -1 -7 -13 0
 -2 -8 -14 0
 -3 -9 -15 0
 -4 -10 -16 0
 -5 -11 -17 0
 -6 -12 -18 0
 -7 -13 -19 0
 -8 -14 -20 0
 -9 -15 -21 0
 -10 -16 -22 0
 -11 -17 -23 0
 -12 -18 -24 0
 -13 -19 -25 0
 -14 -20 -26 0
 -15 -21 -27 0
 -16 -22 -28 0
 -17 -23 -29 0
 -18 -24 -30 0
 -19 -25 -31 0
 -20 -26 -32 0
 -21 -27 -33 0
 -22 -28 -34 0
 -23 -29 -35 0
 -24 -30 -36 0
 1 2 3 0
 4 0
 7 10 11 0
 12 0
 13 14 15 0
 16 17 0
 20 22 23 0
 24 0
 25 26 27 0
 29 30 0
